(set-option :timeout 5000)
(declare-fun tvw_value (Int) Real)
(declare-fun tvw_min () Real)
(declare-fun tvw_max () Real)
(declare-fun tvw_tcnt () Int)
(declare-fun tvw_vcnt () Int)
(assert (not  (and  (or (>  (tvw_value (+  0   0 ) )   (*  (- 1)   999 ) ) (<  (tvw_value (+  0   0 ) )   (*  (- 1)   999 ) ))   (<  0   100 ) ) ) )
(check-sat)(get-model)